Gurobi Optimizer version 9.0.1 build v9.0.1rc0 (linux64)
Optimize a model with 104259 rows, 61728 columns and 523257 nonzeros
Model fingerprint: 0x481f2b2c
Coefficient statistics:
  Matrix range     [1e+00, 2e+04]
  Objective range  [1e+00, 1e+00]
  Bounds range     [1e+00, 1e+00]
  RHS range        [3e-01, 5e+03]
Presolve removed 39111 rows and 25196 columns
Presolve time: 0.77s
Presolved: 65148 rows, 38130 columns, 404924 nonzeros
Ordering time: 0.53s

Barrier statistics:
 AA' NZ     : 3.058e+06
 Factor NZ  : 5.891e+06 (roughly 90 MBytes of memory)
 Factor Ops : 7.688e+08 (less than 1 second per iteration)
 Threads    : 1

                  Objective                Residual
Iter       Primal          Dual         Primal    Dual     Compl     Time
   0   1.23920735e+10 -8.67578911e+08  1.84e+04 8.81e-13  2.59e+06     2s
   1   4.37959602e+09 -2.45935503e+09  6.50e+03 6.71e+03  9.60e+05     3s
   2   1.24849562e+09 -3.90016931e+09  1.83e+03 7.28e+02  2.87e+05     3s
   3   1.56614916e+08 -2.61746586e+09  2.26e+02 1.46e-10  4.65e+04     3s
   4   2.46308666e+07 -1.08124252e+09  2.29e+01 6.55e-11  1.01e+04     4s
   5   1.02589600e+07 -2.40200944e+08  1.02e+00 2.46e-11  1.93e+03     4s
   6   7.29012061e+06 -3.21141054e+07  1.63e-02 1.16e-11  3.00e+02     4s
   7   5.93362687e+06 -4.01841138e+06  4.95e-03 7.28e-12  7.57e+01     5s
   8   4.20726460e+06  3.91243416e+05  1.07e-03 7.28e-12  2.90e+01     5s
   9   3.28564269e+06  1.54288949e+06  2.74e-04 7.28e-12  1.33e+01     5s
  10   3.07523175e+06  2.00507709e+06  1.82e-04 7.28e-12  8.14e+00     5s
  11   2.97855827e+06  2.06818755e+06  1.43e-04 7.28e-12  6.92e+00     6s
  12   2.87517220e+06  2.20064820e+06  1.04e-04 7.28e-12  5.13e+00     6s
  13   2.80664655e+06  2.30897953e+06  7.98e-05 7.28e-12  3.79e+00     6s
  14   2.68815696e+06  2.38485987e+06  4.13e-05 3.64e-12  2.31e+00     6s
  15   2.63365960e+06  2.46293685e+06  2.46e-05 7.28e-12  1.30e+00     7s
  16   2.60687846e+06  2.50452089e+06  1.72e-05 7.28e-12  7.79e-01     7s
  17   2.57385432e+06  2.52694522e+06  7.63e-06 7.28e-12  3.57e-01     7s
  18   2.56065874e+06  2.53535044e+06  3.90e-06 7.28e-12  1.93e-01     8s
  19   2.55540840e+06  2.53924579e+06  2.46e-06 7.28e-12  1.23e-01     8s
  20   2.55231566e+06  2.54168313e+06  1.61e-06 7.28e-12  8.09e-02     8s
  21   2.54981993e+06  2.54321049e+06  9.38e-07 3.64e-12  5.03e-02     9s
  22   2.54879590e+06  2.54417054e+06  6.62e-07 7.28e-12  3.52e-02     9s
  23   2.54803824e+06  2.54535744e+06  4.53e-07 7.28e-12  2.04e-02     9s
  24   2.54698219e+06  2.54564746e+06  1.79e-07 3.64e-12  1.02e-02     9s
  25   2.54675255e+06  2.54596194e+06  1.21e-07 7.28e-12  6.01e-03    10s
  26   2.54650223e+06  2.54609597e+06  5.94e-08 7.28e-12  3.09e-03    10s
  27   2.54644754e+06  2.54610344e+06  4.62e-08 7.28e-12  2.62e-03    10s
  28   2.54640817e+06  2.54614289e+06  3.67e-08 7.28e-12  2.02e-03    11s
  29   2.54638823e+06  2.54616361e+06  3.20e-08 7.28e-12  1.71e-03    11s
  30   2.54633757e+06  2.54619988e+06  1.96e-08 7.28e-12  1.05e-03    11s
  31   2.54630516e+06  2.54621721e+06  1.19e-08 3.64e-12  6.69e-04    12s
  32   2.54629575e+06  2.54622595e+06  9.62e-09 7.28e-12  5.31e-04    12s
  33   2.54628423e+06  2.54623942e+06  6.95e-09 7.28e-12  3.41e-04    12s
  34   2.54627006e+06  2.54624774e+06  3.61e-09 7.28e-12  1.70e-04    13s
  35   2.54626252e+06  2.54625030e+06  1.84e-09 7.28e-12  9.29e-05    13s
  36   2.54625742e+06  2.54625381e+06  6.48e-10 7.28e-12  2.75e-05    13s
  37   2.54625567e+06  2.54625419e+06  8.52e-09 7.28e-12  1.12e-05    14s
  38   2.54625513e+06  2.54625442e+06  1.01e-07 7.28e-12  5.41e-06    14s
  39   2.54625499e+06  2.54625445e+06  7.67e-08 7.28e-12  4.16e-06    14s
  40   2.54625481e+06  2.54625447e+06  4.36e-08 7.28e-12  2.54e-06    15s
  41   2.54625479e+06  2.54625449e+06  1.49e-06 7.28e-12  2.25e-06    15s
  42   2.54625470e+06  2.54625453e+06  8.54e-07 7.28e-12  1.27e-06    16s
  43   2.54625462e+06  2.54625454e+06  5.17e-07 7.28e-12  5.93e-07    16s
  44   2.54625459e+06  2.54625455e+06  2.12e-07 7.28e-12  2.61e-07    16s
  45   2.54625458e+06  2.54625456e+06  1.15e-07 7.28e-12  1.41e-07    16s

Barrier solved model in 45 iterations and 16.45 seconds
Optimal objective 2.54625458e+06

Solver name: Gurobi
Solve time: 16.498400153
Termination status: OPTIMAL
Result count: 1
Primal status: FEASIBLE_POINT
Dual status: FEASIBLE_POINT
